nK = 762;
nT = 4;
nI = 7;
L = 35;
TT = 164;
np = 1;
nc = 3;
b = [38, 30, 55, 45, 54, 67, 65];
d = [99, 78, 147, 138, 129, 144, 117];
m = [1.5, 1.8, 1.7, 1.2, 2.5, 1.8, 2.4];
pt = [0.2, 0.26, 0.28, 0.3];
st = [11.6, 13.26, 11.2, 17.7];
arc = {<1, 0, 1, 1, 0, 0, 0, [1, 1, 1, 1]>, <2, 1, 2, 1, 0, 0, 0, [1, 1, 1, 1]>, <3, 2, 3, 1, 0, 0, 0, [1, 1, 1, 1]>, <4, 3, 4, 1, 0, 0, 0, [1, 1, 1, 1]>, <5, 4, 5, 1, 0, 0, 0, [1, 1, 1, 1]>, <6, 5, 6, 1, 0, 0, 0, [1, 1, 1, 1]>, <7, 6, 7, 1, 0, 0, 0, [1, 1, 1, 1]>, <8, 7, 8, 1, 0, 0, 0, [1, 1, 1, 1]>, <9, 8, 9, 1, 0, 0, 0, [1, 1, 1, 1]>, <10, 9, 10, 1, 0, 0, 0, [1, 1, 1, 1]>, <11, 10, 11, 1, 0, 0, 0, [1, 1, 1, 1]>, <12, 11, 12, 1, 0, 0, 0, [1, 1, 1, 1]>, <13, 12, 13, 1, 0, 0, 0, [1, 1, 1, 1]>, <14, 13, 14, 1, 0, 0, 0, [1, 1, 1, 1]>, <15, 14, 15, 1, 0, 0, 0, [1, 1, 1, 1]>, <16, 15, 16, 1, 0, 0, 0, [1, 1, 1, 1]>, <17, 16, 17, 1, 0, 0, 0, [1, 1, 1, 1]>, <18, 17, 18, 1, 0, 0, 0, [1, 1, 1, 1]>, <19, 18, 19, 1, 0, 0, 0, [1, 1, 1, 1]>, <20, 19, 20, 1, 0, 0, 0, [1, 1, 1, 1]>, <21, 20, 21, 1, 0, 0, 0, [1, 1, 1, 1]>, <22, 21, 22, 1, 0, 0, 0, [1, 1, 1, 1]>, <23, 22, 23, 1, 0, 0, 0, [1, 1, 1, 1]>, <24, 23, 24, 1, 0, 0, 0, [1, 1, 1, 1]>, <25, 24, 25, 1, 0, 0, 0, [1, 1, 1, 1]>, <26, 25, 26, 1, 0, 0, 0, [1, 1, 1, 1]>, <27, 26, 27, 1, 0, 0, 0, [1, 1, 1, 1]>, <28, 27, 28, 1, 0, 0, 0, [1, 1, 1, 1]>, <29, 28, 29, 1, 0, 0, 0, [1, 1, 1, 1]>, <30, 29, 30, 1, 0, 0, 0, [1, 1, 1, 1]>, <31, 30, 31, 1, 0, 0, 0, [1, 1, 1, 1]>, <32, 31, 32, 1, 0, 0, 0, [1, 1, 1, 1]>, <33, 32, 33, 1, 0, 0, 0, [1, 1, 1, 1]>, <34, 33, 34, 1, 0, 0, 0, [1, 1, 1, 1]>, <35, 34, 35, 1, 0, 0, 0, [1, 1, 1, 1]>, <36, 3, 17, 14, 1, 0, 0, [1, 1, 1, 0]>, <37, 4, 18, 14, 1, 0, 0, [1, 1, 1, 0]>, <38, 5, 19, 14, 1, 0, 0, [1, 1, 1, 0]>, <39, 6, 20, 14, 1, 0, 0, [1, 1, 1, 0]>, <40, 12, 26, 14, 1, 0, 0, [1, 1, 1, 0]>, <41, 13, 27, 14, 1, 0, 0, [1, 1, 1, 0]>, <42, 14, 28, 14, 1, 0, 0, [1, 1, 1, 0]>, <43, 15, 29, 14, 1, 0, 0, [1, 1, 1, 0]>, <44, 17, 31, 14, 1, 0, 0, [1, 1, 1, 0]>, <45, 18, 32, 14, 1, 0, 0, [1, 1, 1, 0]>, <46, 19, 33, 14, 1, 0, 0, [1, 1, 1, 0]>, <47, 20, 34, 14, 1, 0, 0, [1, 1, 1, 0]>, <48, 21, 35, 14, 1, 0, 0, [1, 1, 1, 0]>, <49, 4, 17, 13, 2, 0, 0, [1, 1, 1, 0]>, <50, 5, 18, 13, 2, 0, 0, [1, 1, 1, 0]>, <51, 6, 19, 13, 2, 0, 0, [1, 1, 1, 0]>, <52, 13, 26, 13, 2, 0, 0, [1, 1, 1, 0]>, <53, 14, 27, 13, 2, 0, 0, [1, 1, 1, 0]>, <54, 15, 28, 13, 2, 0, 0, [1, 1, 1, 0]>, <55, 18, 31, 13, 2, 0, 0, [1, 1, 1, 0]>, <56, 19, 32, 13, 2, 0, 0, [1, 1, 1, 0]>, <57, 20, 33, 13, 2, 0, 0, [1, 1, 1, 0]>, <58, 21, 34, 13, 2, 0, 0, [1, 1, 1, 0]>, <59, 22, 35, 13, 2, 0, 0, [1, 1, 1, 0]>, <60, 0, 17, 17, 3, 1, 0, [0, 1, 1, 1]>, <61, 1, 18, 17, 3, 1, 0, [0, 1, 1, 1]>, <62, 2, 19, 17, 3, 1, 0, [0, 1, 1, 1]>, <63, 3, 20, 17, 3, 1, 0, [0, 1, 1, 1]>, <64, 4, 21, 17, 3, 1, 0, [0, 1, 1, 1]>, <65, 5, 22, 17, 3, 1, 0, [0, 1, 1, 1]>, <66, 6, 23, 17, 3, 1, 0, [0, 1, 1, 1]>, <67, 9, 26, 17, 3, 1, 0, [0, 1, 1, 1]>, <68, 10, 27, 17, 3, 1, 0, [0, 1, 1, 1]>, <69, 11, 28, 17, 3, 1, 0, [0, 1, 1, 1]>, <70, 12, 29, 17, 3, 1, 0, [0, 1, 1, 1]>, <71, 13, 30, 17, 3, 1, 0, [0, 1, 1, 1]>, <72, 14, 31, 17, 3, 1, 0, [0, 1, 1, 1]>, <73, 15, 32, 17, 3, 1, 0, [0, 1, 1, 1]>, <74, 16, 33, 17, 3, 1, 0, [0, 1, 1, 1]>, <75, 17, 34, 17, 3, 1, 0, [0, 1, 1, 1]>, <76, 18, 35, 17, 3, 1, 0, [0, 1, 1, 1]>, <77, 4, 17, 13, 4, 0, 1, [1, 0, 1, 1]>, <78, 5, 18, 13, 4, 0, 1, [1, 0, 1, 1]>, <79, 6, 19, 13, 4, 0, 1, [1, 0, 1, 1]>, <80, 13, 26, 13, 4, 0, 1, [1, 0, 1, 1]>, <81, 14, 27, 13, 4, 0, 1, [1, 0, 1, 1]>, <82, 15, 28, 13, 4, 0, 1, [1, 0, 1, 1]>, <83, 18, 31, 13, 4, 0, 1, [1, 0, 1, 1]>, <84, 19, 32, 13, 4, 0, 1, [1, 0, 1, 1]>, <85, 20, 33, 13, 4, 0, 1, [1, 0, 1, 1]>, <86, 21, 34, 13, 4, 0, 1, [1, 0, 1, 1]>, <87, 22, 35, 13, 4, 0, 1, [1, 0, 1, 1]>, <88, 0, 18, 18, 5, 0, 0, [1, 1, 0, 1]>, <89, 1, 19, 18, 5, 0, 0, [1, 1, 0, 1]>, <90, 2, 20, 18, 5, 0, 0, [1, 1, 0, 1]>, <91, 3, 21, 18, 5, 0, 0, [1, 1, 0, 1]>, <92, 4, 22, 18, 5, 0, 0, [1, 1, 0, 1]>, <93, 5, 23, 18, 5, 0, 0, [1, 1, 0, 1]>, <94, 6, 24, 18, 5, 0, 0, [1, 1, 0, 1]>, <95, 8, 26, 18, 5, 0, 0, [1, 1, 0, 1]>, <96, 9, 27, 18, 5, 0, 0, [1, 1, 0, 1]>, <97, 10, 28, 18, 5, 0, 0, [1, 1, 0, 1]>, <98, 11, 29, 18, 5, 0, 0, [1, 1, 0, 1]>, <99, 12, 30, 18, 5, 0, 0, [1, 1, 0, 1]>, <100, 13, 31, 18, 5, 0, 0, [1, 1, 0, 1]>, <101, 14, 32, 18, 5, 0, 0, [1, 1, 0, 1]>, <102, 15, 33, 18, 5, 0, 0, [1, 1, 0, 1]>, <103, 16, 34, 18, 5, 0, 0, [1, 1, 0, 1]>, <104, 17, 35, 18, 5, 0, 0, [1, 1, 0, 1]>, <105, 1, 17, 16, 6, 0, 1, [1, 0, 1, 1]>, <106, 2, 18, 16, 6, 0, 1, [1, 0, 1, 1]>, <107, 3, 19, 16, 6, 0, 1, [1, 0, 1, 1]>, <108, 4, 20, 16, 6, 0, 1, [1, 0, 1, 1]>, <109, 5, 21, 16, 6, 0, 1, [1, 0, 1, 1]>, <110, 6, 22, 16, 6, 0, 1, [1, 0, 1, 1]>, <111, 10, 26, 16, 6, 0, 1, [1, 0, 1, 1]>, <112, 11, 27, 16, 6, 0, 1, [1, 0, 1, 1]>, <113, 12, 28, 16, 6, 0, 1, [1, 0, 1, 1]>, <114, 13, 29, 16, 6, 0, 1, [1, 0, 1, 1]>, <115, 14, 30, 16, 6, 0, 1, [1, 0, 1, 1]>, <116, 15, 31, 16, 6, 0, 1, [1, 0, 1, 1]>, <117, 16, 32, 16, 6, 0, 1, [1, 0, 1, 1]>, <118, 17, 33, 16, 6, 0, 1, [1, 0, 1, 1]>, <119, 18, 34, 16, 6, 0, 1, [1, 0, 1, 1]>, <120, 19, 35, 16, 6, 0, 1, [1, 0, 1, 1]>, <121, 2, 17, 15, 7, 0, 0, [1, 0, 1, 1]>, <122, 3, 18, 15, 7, 0, 0, [1, 0, 1, 1]>, <123, 4, 19, 15, 7, 0, 0, [1, 0, 1, 1]>, <124, 5, 20, 15, 7, 0, 0, [1, 0, 1, 1]>, <125, 6, 21, 15, 7, 0, 0, [1, 0, 1, 1]>, <126, 11, 26, 15, 7, 0, 0, [1, 0, 1, 1]>, <127, 12, 27, 15, 7, 0, 0, [1, 0, 1, 1]>, <128, 13, 28, 15, 7, 0, 0, [1, 0, 1, 1]>, <129, 14, 29, 15, 7, 0, 0, [1, 0, 1, 1]>, <130, 15, 30, 15, 7, 0, 0, [1, 0, 1, 1]>, <131, 16, 31, 15, 7, 0, 0, [1, 0, 1, 1]>, <132, 17, 32, 15, 7, 0, 0, [1, 0, 1, 1]>, <133, 18, 33, 15, 7, 0, 0, [1, 0, 1, 1]>, <134, 19, 34, 15, 7, 0, 0, [1, 0, 1, 1]>, <135, 20, 35, 15, 7, 0, 0, [1, 0, 1, 1]>};
